20 380
0 1 54.8
0 2 64.9
0 3 44.7
0 4 23.3
0 5 63.6
0 6 75.5
0 7 4.2
0 8 28.6
0 9 44.1
0 10 58.7
0 11 10.9
0 12 78.0
0 13 34.6
0 14 19.8
0 15 43.1
0 16 68.6
0 17 33.2
0 18 53.5
0 19 35.6
1 2 56.1
1 3 10.4
1 4 31.6
1 5 55.7
1 6 42.9
1 7 58.3
1 8 30.7
1 9 11.9
1 10 8.7
1 11 45.0
1 12 42.2
1 13 34.4
1 14 36.0
1 15 11.8
1 16 16.1
1 17 26.5
1 18 35.2
1 19 19.2
2 3 56.2
2 4 56.2
2 5 1.3
2 6 27.8
2 7 65.1
2 8 43.2
2 9 58.3
2 10 49.8
2 11 63.6
2 12 32.1
2 13 33.6
2 14 51.3
2 15 51.8
2 16 53.8
2 17 41.9
2 18 21.0
2 19 53.2
3 4 21.4
3 5 55.6
3 6 48.1
3 7 48.3
3 8 23.1
3 9 2.4
3 10 17.2
3 11 34.6
3 12 48.3
3 13 29.1
3 14 26.6
3 15 4.5
3 16 26.1
3 17 19.7
3 18 35.4
3 19 9.4
4 5 55.2
4 6 58.6
4 7 26.9
4 8 13.0
4 9 20.9
4 10 36.1
4 11 13.5
4 12 60.3
4 13 22.6
4 14 7.6
4 15 20.1
4 16 46.0
4 17 15.2
4 18 39.0
4 19 12.4
5 6 28.5
5 7 63.8
5 8 42.2
5 9 57.7
5 10 49.6
5 11 62.4
5 12 32.9
5 13 32.6
5 14 50.2
5 15 51.2
5 16 53.9
5 17 40.9
5 18 20.6
5 19 52.4
6 7 77.1
6 8 47.6
6 9 50.5
6 10 34.4
6 11 70.1
6 12 4.4
6 13 41.0
6 14 57.1
6 15 44.9
6 16 33.5
6 17 43.8
6 18 22.4
6 19 50.0
7 8 31.1
7 9 47.8
7 10 61.9
7 11 15.0
7 12 79.9
7 13 36.1
7 14 22.8
7 15 46.6
7 16 71.8
7 17 35.8
7 18 54.9
7 19 39.1
8 9 23.9
8 10 32.1
8 11 22.6
8 12 49.8
8 13 9.7
8 14 9.5
8 15 19.4
8 16 41.8
8 17 4.8
8 18 26.7
8 19 14.7
9 10 19.2
9 11 33.8
9 12 50.7
9 13 30.5
9 14 26.6
9 15 6.5
9 16 27.8
9 17 20.9
9 18 37.6
9 19 9.5
10 11 49.7
10 12 33.6
10 13 33.3
10 14 39.1
10 15 16.3
10 16 9.9
10 17 27.4
10 18 29.4
10 19 24.0
11 12 72.2
11 13 30.7
11 14 13.1
11 15 33.6
11 16 59.5
11 17 26.5
11 18 49.1
11 19 25.9
12 13 43.8
12 14 59.2
12 15 45.4
12 16 31.5
12 17 45.8
12 18 25.6
12 19 51.1
13 14 17.9
13 15 24.8
13 16 42.2
13 17 9.8
13 18 18.9
13 19 22.5
14 15 24.2
14 16 49.0
14 17 13.6
14 18 36.0
14 19 17.2
15 16 26.0
15 17 15.7
15 18 31.1
15 19 7.7
16 17 37.1
16 18 35.0
16 19 33.7
17 18 23.8
17 19 12.6
18 19 33.5
